n_machines = 5;
n_resources = 7;
n_jobs = 70;
horizon = 359;
LB = 71;
n_jobs_per_resource = [10, 10, 10, 10, 10, 10, 10];
duration = [2, 8, 8, 2, 2, 1, 8, 4, 6, 7, 8, 3, 4, 8, 3, 4, 7, 4, 3, 4, 8, 5, 8, 5, 2, 6, 5, 5, 4, 1, 8, 5, 9, 7, 2, 6, 6, 3, 5, 3, 4, 8, 8, 7, 5, 1, 6, 7, 2, 1, 7, 9, 6, 5, 4, 6, 6, 9, 2, 7, 6, 2, 2, 2, 9, 8, 1, 5, 9, 6]